NAME : B-n45-k6
COMMENT : (Augerat et al, Min no of trucks: 6, Optimal value: 678)
TYPE : CVRP
DIMENSION : 45
EDGE_WEIGHT_TYPE : EUC_2D 
CAPACITY : 100
NODE_COORD_SECTION 
1 49 64
2 60 38
3 38 21
4 98 27
5 69 60
6 59 40
7 82 28
8 86 36
9 76 65
10 102 29
11 43 26
12 45 28
13 76 68
14 64 45
15 0 44
16 89 31
17 60 44
18 0 44
19 84 29
20 83 66
21 86 36
22 103 32
23 76 65
24 86 74
25 0 48
26 66 41
27 67 40
28 77 61
29 78 66
30 66 46
31 61 41
DEMAND_SECTION 
1 0 
2 21 
3 13 
4 24 
5 10 
6 22 
7 16 
8 9 
9 9 
10 18 
11 15 
12 3 
13 7 
14 14 
15 22 
16 10 
17 13 
18 3 
19 4 
20 14 
21 2 
22 16 
23 10 
24 5 
25 11 
26 19 
27 14 
28 18 
29 12 
30 21 
31 21 
DEPOT_SECTION 
1  
-1  
EOF 
